p cnf 1198 1112
267 483 0
267 190 0
267 113 0
267 429 0
-267 -483 -190 -113 -429 0
340 483 0
340 103 0
340 113 0
340 429 0
-340 -483 -103 -113 -429 0
-272 140 0
-272 157 0
-272 211 0
272 -140 -157 -211 0
-276 483 0
-276 103 0
-276 195 0
276 -483 -103 -195 0
278 483 0
278 190 0
278 195 0
278 429 0
-278 -483 -190 -195 -429 0
286 483 0
286 190 0
286 113 0
286 420 0
-286 -483 -190 -113 -420 0
281 423 0
281 211 0
281 125 0
281 119 0
-281 -423 -211 -125 -119 0
284 140 0
284 125 0
-284 -140 -125 0
287 423 0
287 125 0
287 126 0
-287 -423 -125 -126 0
-419 140 0
-419 149 0
-419 154 0
419 -140 -149 -154 0
-332 140 0
-332 149 0
-332 211 0
332 -140 -149 -211 0
-334 140 0
-334 157 0
-334 154 0
334 -140 -157 -154 0
-336 140 0
-336 157 0
-336 211 0
336 -140 -157 -211 0
-289 423 0
-289 149 0
-289 154 0
289 -423 -149 -154 0
-291 423 0
-291 149 0
-291 211 0
291 -423 -149 -211 0
-293 423 0
-293 157 0
-293 154 0
293 -423 -157 -154 0
-295 423 0
-295 157 0
-295 211 0
295 -423 -157 -211 0
-338 160 0
-338 161 0
338 -160 -161 0
301 -163 0
301 -164 0
-301 163 164 0
303 515 0
303 521 0
-303 -515 -521 0
304 -515 0
304 -521 0
-304 515 521 0
306 527 0
306 533 0
-306 -527 -533 0
307 -527 0
307 -533 0
-307 527 533 0
309 542 0
309 548 0
-309 -542 -548 0
310 -542 0
310 -548 0
-310 542 548 0
312 554 0
312 560 0
-312 -554 -560 0
313 -554 0
313 -560 0
-313 554 560 0
-605 190 0
-605 202 0
605 -190 -202 0
479 193 0
-479 -193 0
-608 195 0
-608 202 0
608 -195 -202 0
-611 429 0
-611 202 0
611 -429 -202 0
-614 201 0
-614 202 0
614 -201 -202 0
428 423 0
428 424 0
-428 -423 -424 0
-317 -429 0
-317 -211 0
317 429 211 0
-318 429 0
-318 211 0
318 -429 -211 0
320 683 0
320 692 0
-320 -683 -692 0
321 -683 0
321 -692 0
-321 683 692 0
323 701 0
323 710 0
-323 -701 -710 0
324 -701 0
324 -710 0
-324 701 710 0
326 719 0
326 728 0
-326 -719 -728 0
327 -719 0
327 -728 0
-327 719 728 0
329 737 0
329 746 0
-329 -737 -746 0
330 -737 0
330 -746 0
-330 737 746 0
-1150 387 0
-1150 515 0
1150 -387 -515 0
-1153 387 0
-1153 521 0
1153 -387 -521 0
-1112 387 0
-1112 527 0
1112 -387 -527 0
-1052 387 0
-1052 533 0
1052 -387 -533 0
-1055 387 0
-1055 542 0
1055 -387 -542 0
-802 264 0
-802 253 0
802 -264 -253 0
-1058 387 0
-1058 548 0
1058 -387 -548 0
-810 264 0
-810 259 0
810 -264 -259 0
-1002 387 0
-1002 554 0
1002 -387 -554 0
-818 264 0
-818 265 0
818 -264 -265 0
390 267 0
-390 -267 0
341 272 0
-341 -272 0
392 -340 0
392 -272 0
-392 340 272 0
343 276 0
-343 -276 0
345 276 0
-345 -276 0
370 278 0
-370 -278 0
-347 -286 0
-347 -281 0
347 286 281 0
350 -286 0
350 -284 0
-350 286 284 0
352 -286 0
352 -287 0
-352 286 287 0
394 289 0
-394 -289 0
371 291 0
-371 -291 0
396 293 0
-396 -293 0
398 295 0
-398 -295 0
354 297 0
354 301 0
-354 -297 -301 0
-400 300 0
-400 301 0
400 -300 -301 0
360 303 0
360 304 0
-360 -303 -304 0
361 306 0
361 307 0
-361 -306 -307 0
367 309 0
367 310 0
-367 -309 -310 0
368 312 0
368 313 0
-368 -312 -313 0
494 479 0
-494 -479 0
-422 -317 0
-422 -318 0
422 317 318 0
377 320 0
377 321 0
-377 -320 -321 0
378 323 0
378 324 0
-378 -323 -324 0
384 326 0
384 327 0
-384 -326 -327 0
385 329 0
385 330 0
-385 -329 -330 0
-332 331 0
332 -331 0
-334 333 0
334 -333 0
-336 335 0
336 -335 0
-338 337 0
338 -337 0
437 -340 0
437 -341 0
-437 340 341 0
427 343 0
-427 -343 0
439 345 0
-439 -345 0
-402 347 0
-402 348 0
402 -347 -348 0
441 350 0
-441 -350 0
443 352 0
-443 -352 0
445 354 0
-445 -354 0
404 360 0
-404 -360 0
405 361 0
-405 -361 0
-449 360 0
-449 361 0
449 -360 -361 0
407 367 0
-407 -367 0
408 368 0
-408 -368 0
-452 367 0
-452 368 0
452 -367 -368 0
456 370 0
456 371 0
-456 -370 -371 0
431 377 0
-431 -377 0
432 378 0
-432 -378 0
-497 377 0
-497 378 0
497 -377 -378 0
434 384 0
-434 -384 0
435 385 0
-435 -385 0
-500 384 0
-500 385 0
500 -384 -385 0
-1147 387 0
-1147 494 0
1147 -387 -494 0
-390 389 0
390 -389 0
-392 391 0
392 -391 0
-394 393 0
394 -393 0
-396 395 0
396 -395 0
-398 397 0
398 -397 0
-400 399 0
400 -399 0
447 402 0
-447 -402 0
-450 404 0
-450 405 0
450 -404 -405 0
-453 407 0
-453 408 0
453 -407 -408 0
-477 428 0
-477 427 0
-477 420 0
477 -428 -427 -420 0
-480 427 0
-480 429 0
-480 419 0
480 -427 -429 -419 0
495 427 0
495 419 0
495 420 0
-495 -427 -419 -420 0
455 422 0
455 423 0
455 424 0
455 427 0
-455 -422 -423 -424 -427 0
482 427 0
482 428 0
482 429 0
-482 -427 -428 -429 0
-498 431 0
-498 432 0
498 -431 -432 0
-501 434 0
-501 435 0
501 -434 -435 0
-437 436 0
437 -436 0
-439 438 0
439 -438 0
-441 440 0
441 -440 0
-443 442 0
443 -442 0
-445 444 0
445 -444 0
596 447 0
-596 -447 0
-507 -449 0
-507 -450 0
507 449 450 0
-512 -452 0
-512 -453 0
512 452 453 0
561 455 0
561 456 0
-561 -455 -456 0
-518 539 0
-518 477 0
518 -539 -477 0
-519 479 0
-519 480 0
519 -479 -480 0
-524 545 0
-524 477 0
524 -545 -477 0
-525 479 0
-525 480 0
525 -479 -480 0
-530 551 0
-530 477 0
530 -551 -477 0
-531 479 0
-531 480 0
531 -479 -480 0
-536 557 0
-536 477 0
536 -557 -477 0
-537 479 0
-537 480 0
537 -479 -480 0
558 482 0
558 483 0
-558 -482 -483 0
654 -494 0
654 -495 0
-654 494 495 0
657 -494 0
657 -495 0
-657 494 495 0
660 -494 0
660 -495 0
-660 494 495 0
663 -494 0
663 -495 0
-663 494 495 0
-567 -497 0
-567 -498 0
567 497 498 0
-572 -500 0
-572 -501 0
572 500 501 0
599 566 0
599 507 0
-599 -566 -507 0
600 -566 0
600 -507 0
-600 566 507 0
602 512 0
602 513 0
-602 -512 -513 0
603 -512 0
603 -513 0
-603 512 513 0
-606 515 0
-606 561 0
606 -515 -561 0
-643 -518 0
-643 -519 0
643 518 519 0
-609 521 0
-609 561 0
609 -521 -561 0
-646 -524 0
-646 -525 0
646 524 525 0
-612 527 0
-612 561 0
612 -527 -561 0
-649 -530 0
-649 -531 0
649 530 531 0
-615 533 0
-615 561 0
615 -533 -561 0
-652 -536 0
-652 -537 0
652 536 537 0
-617 539 0
-617 558 0
617 -539 -558 0
-618 542 0
-618 561 0
618 -542 -561 0
-620 545 0
-620 558 0
620 -545 -558 0
-621 548 0
-621 561 0
621 -548 -561 0
-623 551 0
-623 558 0
623 -551 -558 0
-624 554 0
-624 561 0
624 -554 -561 0
-626 557 0
-626 558 0
626 -557 -558 0
-627 560 0
-627 561 0
627 -560 -561 0
629 566 0
629 567 0
-629 -566 -567 0
630 -566 0
630 -567 0
-630 566 567 0
632 572 0
632 573 0
-632 -572 -573 0
633 -572 0
633 -573 0
-633 572 573 0
-763 596 0
-763 683 0
763 -596 -683 0
-771 596 0
-771 692 0
771 -596 -692 0
-779 596 0
-779 701 0
779 -596 -701 0
-787 596 0
-787 710 0
787 -596 -710 0
-795 596 0
-795 719 0
795 -596 -719 0
1091 596 0
1091 728 0
-1091 -596 -728 0
1096 596 0
1096 737 0
-1096 -596 -737 0
1023 596 0
1023 746 0
-1023 -596 -746 0
639 599 0
639 600 0
-639 -599 -600 0
640 602 0
640 603 0
-640 -602 -603 0
-642 -605 0
-642 -606 0
642 605 606 0
-645 -608 0
-645 -609 0
645 608 609 0
-648 -611 0
-648 -612 0
648 611 612 0
-651 -614 0
-651 -615 0
651 614 615 0
-655 -617 0
-655 -618 0
655 617 618 0
-658 -620 0
-658 -621 0
658 620 621 0
-661 -623 0
-661 -624 0
661 623 624 0
-664 -626 0
-664 -627 0
664 626 627 0
670 629 0
670 630 0
-670 -629 -630 0
671 632 0
671 633 0
-671 -632 -633 0
673 639 0
-673 -639 0
674 640 0
-674 -640 0
-751 639 0
-751 640 0
751 -639 -640 0
686 642 0
686 643 0
-686 -642 -643 0
695 645 0
695 646 0
-695 -645 -646 0
704 648 0
704 649 0
-704 -648 -649 0
713 651 0
713 652 0
-713 -651 -652 0
722 654 0
722 655 0
-722 -654 -655 0
731 657 0
731 658 0
-731 -657 -658 0
740 660 0
740 661 0
-740 -660 -661 0
749 663 0
749 664 0
-749 -663 -664 0
676 670 0
-676 -670 0
677 671 0
-677 -671 0
-754 670 0
-754 671 0
754 -670 -671 0
-752 673 0
-752 674 0
752 -673 -674 0
-755 676 0
-755 677 0
755 -676 -677 0
760 686 0
760 683 0
-760 -686 -683 0
1101 -686 0
1101 -683 0
-1101 686 683 0
-762 748 0
-762 686 0
762 -748 -686 0
768 695 0
768 692 0
-768 -695 -692 0
1032 -695 0
1032 -692 0
-1032 695 692 0
-770 748 0
-770 695 0
770 -748 -695 0
776 704 0
776 701 0
-776 -704 -701 0
1033 -704 0
1033 -701 0
-1033 704 701 0
-778 748 0
-778 704 0
778 -748 -704 0
784 713 0
784 710 0
-784 -713 -710 0
1034 -713 0
1034 -710 0
-1034 713 710 0
-786 748 0
-786 713 0
786 -748 -713 0
792 722 0
792 719 0
-792 -722 -719 0
987 -722 0
987 -719 0
-987 722 719 0
-794 748 0
-794 722 0
794 -748 -722 0
800 731 0
800 728 0
-800 -731 -728 0
909 -731 0
909 -728 0
-909 731 728 0
-803 748 0
-803 731 0
803 -748 -731 0
808 740 0
808 737 0
-808 -740 -737 0
910 -740 0
910 -737 0
-910 740 737 0
-811 748 0
-811 740 0
811 -748 -740 0
816 749 0
816 746 0
-816 -749 -746 0
830 -749 0
830 -746 0
-830 749 746 0
-819 748 0
-819 749 0
819 -748 -749 0
-923 -751 0
-923 -752 0
923 751 752 0
-925 -754 0
-925 -755 0
925 754 755 0
839 760 0
-839 -760 0
-1066 1101 0
-1066 760 0
1066 -1101 -760 0
-1168 -762 0
-1168 -763 0
1168 762 763 0
847 768 0
-847 -768 0
-1072 1032 0
-1072 768 0
1072 -1032 -768 0
-1172 -770 0
-1172 -771 0
1172 770 771 0
917 776 0
-917 -776 0
-1078 1033 0
-1078 776 0
1078 -1033 -776 0
-1176 -778 0
-1176 -779 0
1176 778 779 0
921 784 0
-921 -784 0
-1008 1034 0
-1008 784 0
1008 -1034 -784 0
-1137 -786 0
-1137 -787 0
1137 786 787 0
871 792 0
-871 -792 0
-969 987 0
-969 792 0
969 -987 -792 0
-1086 -794 0
-1086 -795 0
1086 794 795 0
879 800 0
-879 -800 0
-975 909 0
-975 800 0
975 -909 -800 0
-1090 -802 0
-1090 -803 0
1090 802 803 0
907 808 0
-907 -808 0
-981 910 0
-981 808 0
981 -910 -808 0
-1095 -810 0
-1095 -811 0
1095 810 811 0
911 816 0
-911 -816 0
-898 830 0
-898 816 0
898 -830 -816 0
-1022 -818 0
-1022 -819 0
1022 818 819 0
955 830 0
955 895 0
-955 -830 -895 0
949 910 0
949 830 0
949 895 0
-949 -910 -830 -895 0
942 909 0
942 910 0
942 830 0
942 895 0
-942 -909 -910 -830 -895 0
1121 839 0
-1121 -839 0
-927 897 0
-927 1066 0
927 -897 -1066 0
-928 900 0
-928 839 0
928 -900 -839 0
1037 847 0
-1037 -847 0
-930 897 0
-930 1072 0
930 -897 -1072 0
-931 900 0
-931 847 0
931 -900 -847 0
1042 917 0
-1042 -917 0
-933 897 0
-933 1078 0
933 -897 -1078 0
-934 900 0
-934 917 0
934 -900 -917 0
1046 921 0
-1046 -921 0
-936 897 0
-936 1008 0
936 -897 -1008 0
-937 900 0
-937 921 0
937 -900 -921 0
991 871 0
-991 -871 0
-944 897 0
-944 969 0
944 -897 -969 0
-945 900 0
-945 871 0
945 -900 -871 0
939 879 0
-939 -879 0
-951 897 0
-951 975 0
951 -897 -975 0
-952 900 0
-952 879 0
952 -900 -879 0
947 907 0
-947 -907 0
-957 897 0
-957 981 0
957 -897 -981 0
-958 900 0
-958 907 0
958 -900 -907 0
954 911 0
-954 -911 0
-960 -898 0
-960 -895 0
960 898 895 0
-961 898 0
-961 895 0
961 -898 -895 0
-963 897 0
-963 898 0
963 -897 -898 0
-964 900 0
-964 911 0
964 -900 -911 0
948 910 0
948 911 0
-948 -910 -911 0
940 909 0
940 907 0
-940 -909 -907 0
941 909 0
941 910 0
941 911 0
-941 -909 -910 -911 0
1043 1033 0
1043 921 0
-1043 -1033 -921 0
1038 1032 0
1038 917 0
-1038 -1032 -917 0
1039 1032 0
1039 1033 0
1039 921 0
-1039 -1032 -1033 -921 0
-923 922 0
923 -922 0
-925 924 0
925 -924 0
-1167 -927 0
-1167 -928 0
1167 927 928 0
-1171 -930 0
-1171 -931 0
1171 930 931 0
-1175 -933 0
-1175 -934 0
1175 933 934 0
-1136 -936 0
-1136 -937 0
1136 936 937 0
988 939 0
988 940 0
988 941 0
988 942 0
-988 -939 -940 -941 -942 0
-1085 -944 0
-1085 -945 0
1085 944 945 0
976 947 0
976 948 0
976 949 0
-976 -947 -948 -949 0
-1089 -951 0
-1089 -952 0
1089 951 952 0
982 954 0
982 955 0
-982 -954 -955 0
-1094 -957 0
-1094 -958 0
1094 957 958 0
-985 -960 0
-985 -961 0
985 960 961 0
-1021 -963 0
-1021 -964 0
1021 963 964 0
-993 -969 0
-993 -988 0
993 969 988 0
-994 969 0
-994 988 0
994 -969 -988 0
-996 -975 0
-996 -976 0
996 975 976 0
-997 975 0
-997 976 0
997 -975 -976 0
-999 -981 0
-999 -982 0
999 981 982 0
-1000 981 0
-1000 982 0
1000 -981 -982 0
-1003 1132 0
-1003 985 0
1003 -1132 -985 0
990 987 0
990 988 0
-990 -987 -988 0
1035 990 0
1035 991 0
-1035 -990 -991 0
-1012 -993 0
-1012 -994 0
1012 993 994 0
-1015 -996 0
-1015 -997 0
1015 996 997 0
-1018 -999 0
-1018 -1000 0
1018 999 1000 0
-1020 -1002 0
-1020 -1003 0
1020 1002 1003 0
-1049 -1008 0
-1049 -1035 0
1049 1008 1035 0
-1050 1008 0
-1050 1035 0
1050 -1008 -1035 0
-1053 1132 0
-1053 1012 0
1053 -1132 -1012 0
-1056 1132 0
-1056 1015 0
1056 -1132 -1015 0
-1059 1132 0
-1059 1018 0
1059 -1132 -1018 0
1061 1020 0
1061 1021 0
1061 1022 0
1061 1023 0
-1061 -1020 -1021 -1022 -1023 0
1047 1034 0
1047 1035 0
-1047 -1034 -1035 0
1044 1033 0
1044 1034 0
1044 1035 0
-1044 -1033 -1034 -1035 0
1040 1032 0
1040 1033 0
1040 1034 0
1040 1035 0
-1040 -1032 -1033 -1034 -1035 0
1100 1037 0
1100 1038 0
1100 1039 0
1100 1040 0
-1100 -1037 -1038 -1039 -1040 0
1073 1042 0
1073 1043 0
1073 1044 0
-1073 -1042 -1043 -1044 0
1079 1046 0
1079 1047 0
-1079 -1046 -1047 0
-1082 -1049 0
-1082 -1050 0
1082 1049 1050 0
-1084 -1052 0
-1084 -1053 0
1084 1052 1053 0
-1088 -1055 0
-1088 -1056 0
1088 1055 1056 0
-1093 -1058 0
-1093 -1059 0
1093 1058 1059 0
1098 1061 0
-1098 -1061 0
-1103 -1066 0
-1103 -1100 0
1103 1066 1100 0
-1104 1066 0
-1104 1100 0
1104 -1066 -1100 0
-1106 -1072 0
-1106 -1073 0
1106 1072 1073 0
-1107 1072 0
-1107 1073 0
1107 -1072 -1073 0
-1109 -1078 0
-1109 -1079 0
1109 1078 1079 0
-1110 1078 0
-1110 1079 0
1110 -1078 -1079 0
-1113 1132 0
-1113 1082 0
1113 -1132 -1082 0
1115 1084 0
1115 1085 0
1115 1086 0
-1115 -1084 -1085 -1086 0
1117 1088 0
1117 1089 0
1117 1090 0
1117 1091 0
-1117 -1088 -1089 -1090 -1091 0
1119 1093 0
1119 1094 0
1119 1095 0
1119 1096 0
-1119 -1093 -1094 -1095 -1096 0
1124 1098 0
-1124 -1098 0
1122 1100 0
1122 1101 0
-1122 -1100 -1101 0
-1127 -1103 0
-1127 -1104 0
1127 1103 1104 0
-1130 -1106 0
-1130 -1107 0
1130 1106 1107 0
-1133 -1109 0
-1133 -1110 0
1133 1109 1110 0
-1135 -1112 0
-1135 -1113 0
1135 1112 1113 0
1139 1115 0
-1139 -1115 0
1141 1117 0
-1141 -1117 0
1143 1119 0
-1143 -1119 0
-1145 1121 0
-1145 1122 0
1145 -1121 -1122 0
-1124 1123 0
1124 -1123 0
-1148 1132 0
-1148 1127 0
1148 -1132 -1127 0
-1151 1132 0
-1151 1130 0
1151 -1132 -1130 0
-1154 1132 0
-1154 1133 0
1154 -1132 -1133 0
1156 1135 0
1156 1136 0
1156 1137 0
-1156 -1135 -1136 -1137 0
1158 1139 0
-1158 -1139 0
1160 1141 0
-1160 -1141 0
1162 1143 0
-1162 -1143 0
1164 1145 0
-1164 -1145 0
-1166 -1147 0
-1166 -1148 0
1166 1147 1148 0
-1170 -1150 0
-1170 -1151 0
1170 1150 1151 0
-1174 -1153 0
-1174 -1154 0
1174 1153 1154 0
1178 1156 0
-1178 -1156 0
-1158 1157 0
1158 -1157 0
-1160 1159 0
1160 -1159 0
-1162 1161 0
1162 -1161 0
-1164 1163 0
1164 -1163 0
1180 1166 0
1180 1167 0
1180 1168 0
-1180 -1166 -1167 -1168 0
1182 1170 0
1182 1171 0
1182 1172 0
-1182 -1170 -1171 -1172 0
1184 1174 0
1184 1175 0
1184 1176 0
-1184 -1174 -1175 -1176 0
1186 1178 0
-1186 -1178 0
1188 1180 0
-1188 -1180 0
1190 1182 0
-1190 -1182 0
1192 1184 0
-1192 -1184 0
-1186 1185 0
1186 -1185 0
1194 1188 0
-1194 -1188 0
1196 1190 0
-1196 -1190 0
1198 1192 0
-1198 -1192 0
-1194 1193 0
1194 -1193 0
-1196 1195 0
1196 -1195 0
-1198 1197 0
1198 -1197 0